;; Mutation-Based Equivalence Benchmark
;; Source:     AutomatArk / instance06876.smt2
;; Mutations:  intersect_max_len_20
;; Status:     sat
;;
;; Original regex vs mutated regex
;; Equivalence check: unsat ⟺ L(R1) = L(R2)

(set-info :smt-lib-version 2.6)
(set-info :category "mutation")
(set-info :status sat)
(set-logic QF_S)


;; R1: original
;; R2: mutated (intersect_max_len_20)
(assert
  (not
    (=
      (re.++ (re.union (re.++ ((_ re.loop 1 3) (re.range "0" "9")) (str.to_re ",") (re.* (re.++ ((_ re.loop 3 3) (re.range "0" "9")) (str.to_re ","))) ((_ re.loop 3 3) (re.range "0" "9")) (re.opt (re.++ (str.to_re ".") ((_ re.loop 1 3) (re.range "0" "9"))))) (re.++ ((_ re.loop 1 3) (re.range "0" "9")) (re.opt (re.++ (str.to_re ".") ((_ re.loop 3 3) (re.range "0" "9")))))) (str.to_re "\u{a}"))
      (re.++ (re.union (re.++ ((_ re.loop 1 3) (re.range "0" "9")) (str.to_re ",") (re.inter (re.* (re.++ ((_ re.loop 3 3) (re.range "0" "9")) (str.to_re ","))) ((_ re.loop 0 20) re.allchar)) ((_ re.loop 3 3) (re.range "0" "9")) (re.opt (re.++ (str.to_re ".") ((_ re.loop 1 3) (re.range "0" "9"))))) (re.++ ((_ re.loop 1 3) (re.range "0" "9")) (re.opt (re.++ (str.to_re ".") ((_ re.loop 3 3) (re.range "0" "9")))))) (str.to_re "\u{a}")))))

(check-sat)
(exit)
